(set-info :source |printed by MathSAT|)
(declare-fun call_moesi.ite24 () Int)
(declare-fun call_moesi.ite16 () Int)
(declare-fun param_etat_mo3 () Bool)
(declare-fun call_moesi.ite13 () Int)
(declare-fun call_moesi.flby6.next () Int)
(declare-fun _OK_.next () Bool)
(declare-fun call_moesi.shared_mo () Int)
(declare-fun flby () Bool)
(declare-fun call_moesi.ite19.next () Int)
(declare-fun call_moesi.ite28 () Int)
(declare-fun call_moesi.owned_mo.next () Int)
(declare-fun call_moesi.ite5 () Int)
(declare-fun call_moesi.ite25.next () Int)
(declare-fun call_moesi.ite.next () Int)
(declare-fun call_moesi.ite5.next () Int)
(declare-fun call_moesi.ite8 () Int)
(declare-fun call_moesi.erreur_mo.next () Bool)
(declare-fun exclusive_mo () Int)
(declare-fun call_moesi.ite8.next () Int)
(declare-fun modified_mo () Int)
(declare-fun call_moesi.garde_mo2.next () Bool)
(declare-fun modified_mo.next () Int)
(declare-fun call_excludes4.excludes.next () Bool)
(declare-fun call_excludes4.excludes () Bool)
(declare-fun call_moesi.ite33 () Int)
(declare-fun invalid_mo () Int)
(declare-fun call_moesi.ite21 () Int)
(declare-fun call_moesi.flby2.next () Int)
(declare-fun call_moesi.flby4.next () Int)
(declare-fun call_moesi.ite2.next () Int)
(declare-fun call_moesi.modified_mo.next () Int)
(declare-fun call_moesi.ite14 () Int)
(declare-fun call_moesi.ite17.next () Int)
(declare-fun call_moesi.ite26 () Int)
(declare-fun call_moesi.ite6.next () Int)
(declare-fun call_moesi.ite32.next () Int)
(declare-fun call_moesi.ite () Int)
(declare-fun call_Sofar.Sofar.next () Bool)
(declare-fun call_moesi.exclusive_mo () Int)
(declare-fun call_moesi.flby () Bool)
(declare-fun call_moesi.ite18.next () Int)
(declare-fun call_moesi.ite10 () Int)
(declare-fun call_moesi.ite31.next () Int)
(declare-fun call_Sofar.Sofar () Bool)
(declare-fun call_moesi.ite23.next () Int)
(declare-fun call_moesi.ite29 () Int)
(declare-fun call_moesi.ite20.next () Int)
(declare-fun call_moesi.ite11.next () Int)
(declare-fun call_Sofar.flby.next () Bool)
(declare-fun param_etat_mo1 () Bool)
(declare-fun call_moesi.ite6 () Int)
(declare-fun call_moesi.flby3 () Int)
(declare-fun call_moesi.ite26.next () Int)
(declare-fun call_moesi.flby3.next () Int)
(declare-fun call_moesi.exclusive_mo.next () Int)
(declare-fun shared_mo () Int)
(declare-fun call_moesi.ite34.next () Int)
(declare-fun call_moesi.ite18 () Int)
(declare-fun shared_mo.next () Int)
(declare-fun call_moesi.owned_mo () Int)
(declare-fun exclusive_mo.next () Int)
(declare-fun call_moesi.ite9.next () Int)
(declare-fun env.next () Bool)
(declare-fun call_moesi.ite33.next () Int)
(declare-fun call_moesi.modified_mo () Int)
(declare-fun call_moesi.flby4 () Int)
(declare-fun call_moesi.invalid_mo.next () Int)
(declare-fun call_moesi.garde_mo1.next () Bool)
(declare-fun call_moesi.ite27.next () Int)
(declare-fun _OK_ () Bool)
(declare-fun call_moesi.flby6 () Int)
(declare-fun call_moesi.ite14.next () Int)
(declare-fun call_moesi.ite27 () Int)
(declare-fun call_moesi.flby5 () Int)
(declare-fun call_moesi.ite22.next () Int)
(declare-fun call_moesi.ite32 () Int)
(declare-fun call_moesi.ite34 () Int)
(declare-fun call_moesi.ite24.next () Int)
(declare-fun call_moesi.ite4.next () Int)
(declare-fun param_etat_mo2.next () Bool)
(declare-fun call_moesi.ite22 () Int)
(declare-fun call_moesi.ite30.next () Int)
(declare-fun invalid_mo.next () Int)
(declare-fun call_moesi.ite15 () Int)
(declare-fun call_moesi.garde_mo3.next () Bool)
(declare-fun call_moesi.ite7.next () Int)
(declare-fun call_moesi.ite30 () Int)
(declare-fun call_moesi.ite3 () Int)
(declare-fun param_etat_mo4 () Bool)
(declare-fun param_etat_mo1.next () Bool)
(declare-fun call_moesi.ite7 () Int)
(declare-fun erreur_mo () Bool)
(declare-fun call_moesi.ite29.next () Int)
(declare-fun call_moesi.ite3.next () Int)
(declare-fun call_moesi.ite13.next () Int)
(declare-fun param_etat_mo2 () Bool)
(declare-fun call_moesi.invalid_mo () Int)
(declare-fun param_etat_mo4.next () Bool)
(declare-fun call_moesi.ite10.next () Int)
(declare-fun call_moesi.flby2 () Int)
(declare-fun call_moesi.garde_mo4.next () Bool)
(declare-fun call_moesi.flby.next () Bool)
(declare-fun call_moesi.ite23 () Int)
(declare-fun call_moesi.ite15.next () Int)
(declare-fun call_moesi.ite20 () Int)
(declare-fun owned_mo.next () Int)
(declare-fun env () Bool)
(declare-fun call_moesi.ite17 () Int)
(declare-fun call_moesi.erreur_mo () Bool)
(declare-fun param_etat_mo3.next () Bool)
(declare-fun call_moesi.ite16.next () Int)
(declare-fun call_moesi.ite11 () Int)
(declare-fun call_moesi.ite9 () Int)
(declare-fun call_moesi.ite12.next () Int)
(declare-fun call_moesi.ite21.next () Int)
(declare-fun call_moesi.ite2 () Int)
(declare-fun call_Sofar.flby () Bool)
(declare-fun flby.next () Bool)
(declare-fun call_moesi.shared_mo.next () Int)
(declare-fun call_moesi.flby5.next () Int)
(declare-fun owned_mo () Int)
(declare-fun call_moesi.ite28.next () Int)
(declare-fun erreur_mo.next () Bool)
(define-fun .def_1341 () Bool (= call_Sofar.flby.next call_Sofar.Sofar.next))
(define-fun .def_1336 () Bool (and param_etat_mo4.next param_etat_mo3.next))
(define-fun .def_1334 () Bool (and param_etat_mo4.next param_etat_mo2.next))
(define-fun .def_1332 () Bool (and param_etat_mo2.next param_etat_mo3.next))
(define-fun .def_1330 () Bool (and param_etat_mo4.next param_etat_mo1.next))
(define-fun .def_1327 () Bool (and param_etat_mo2.next param_etat_mo1.next))
(define-fun .def_1328 () Bool (and param_etat_mo1.next .def_1327))
(define-fun .def_1329 () Bool (and param_etat_mo3.next .def_1328))
(define-fun .def_1331 () Bool (or .def_1329 .def_1330))
(define-fun .def_1333 () Bool (or .def_1331 .def_1332))
(define-fun .def_1335 () Bool (or .def_1333 .def_1334))
(define-fun .def_1337 () Bool (or .def_1335 .def_1336))
(define-fun .def_1338 () Bool (not .def_1337))
(define-fun .def_1339 () Bool (= call_excludes4.excludes.next .def_1338))
(define-fun .def_1325 () Bool (= call_moesi.flby.next call_moesi.erreur_mo.next))
(define-fun .def_1323 () Bool (= call_moesi.flby6.next call_moesi.owned_mo.next))
(define-fun .def_1321 () Bool (= call_moesi.flby5.next call_moesi.invalid_mo.next))
(define-fun .def_1319 () Bool (= call_moesi.flby4.next call_moesi.shared_mo.next))
(define-fun .def_1317 () Bool (= call_moesi.exclusive_mo.next call_moesi.flby3.next))
(define-fun .def_1315 () Bool (= call_moesi.flby2.next call_moesi.modified_mo.next))
(define-fun .def_1313 () Bool (= env.next call_Sofar.Sofar.next))
(define-fun .def_1310 () Bool (= erreur_mo.next call_moesi.erreur_mo.next))
(define-fun .def_1306 () Bool (= owned_mo.next call_moesi.owned_mo.next))
(define-fun .def_1303 () Bool (= invalid_mo.next call_moesi.invalid_mo.next))
(define-fun .def_1300 () Bool (= shared_mo.next call_moesi.shared_mo.next))
(define-fun .def_1297 () Bool (= exclusive_mo.next call_moesi.exclusive_mo.next))
(define-fun .def_1295 () Bool (= modified_mo.next call_moesi.modified_mo.next))
(define-fun .def_1290 () Bool (not env.next))
(define-fun .def_1291 () Bool (or flby.next .def_1290))
(define-fun .def_1292 () Bool (= _OK_.next .def_1291))
(define-fun .def_1284 () Bool (= call_moesi.ite32.next call_moesi.ite33.next))
(define-fun .def_1285 () Bool (or param_etat_mo3.next .def_1284))
(define-fun .def_1281 () Bool (= call_moesi.ite30.next call_moesi.ite33.next))
(define-fun .def_1260 () Bool (not param_etat_mo3.next))
(define-fun .def_1282 () Bool (or .def_1260 .def_1281))
(define-fun .def_1278 () Bool (= call_moesi.ite26.next call_moesi.ite27.next))
(define-fun .def_1279 () Bool (or param_etat_mo3.next .def_1278))
(define-fun .def_1275 () Bool (= call_moesi.ite24.next call_moesi.ite27.next))
(define-fun .def_1276 () Bool (or .def_1260 .def_1275))
(define-fun .def_1272 () Bool (= call_moesi.ite20.next call_moesi.ite21.next))
(define-fun .def_1273 () Bool (or param_etat_mo3.next .def_1272))
(define-fun .def_1269 () Bool (= call_moesi.ite18.next call_moesi.ite21.next))
(define-fun .def_1270 () Bool (or .def_1260 .def_1269))
(define-fun .def_1266 () Bool (= call_moesi.ite13.next call_moesi.ite14.next))
(define-fun .def_1267 () Bool (or param_etat_mo3.next .def_1266))
(define-fun .def_1263 () Bool (= call_moesi.ite11.next call_moesi.ite14.next))
(define-fun .def_1264 () Bool (or .def_1260 .def_1263))
(define-fun .def_1259 () Bool (= call_moesi.ite3.next call_moesi.ite6.next))
(define-fun .def_1261 () Bool (or .def_1259 .def_1260))
(define-fun .def_1256 () Bool (= call_moesi.ite5.next call_moesi.ite6.next))
(define-fun .def_1258 () Bool (or .def_1256 param_etat_mo3.next))
(define-fun .def_1262 () Bool (and .def_1258 .def_1261))
(define-fun .def_1265 () Bool (and .def_1262 .def_1264))
(define-fun .def_1268 () Bool (and .def_1265 .def_1267))
(define-fun .def_1271 () Bool (and .def_1268 .def_1270))
(define-fun .def_1274 () Bool (and .def_1271 .def_1273))
(define-fun .def_1277 () Bool (and .def_1274 .def_1276))
(define-fun .def_1280 () Bool (and .def_1277 .def_1279))
(define-fun .def_1283 () Bool (and .def_1280 .def_1282))
(define-fun .def_1286 () Bool (and .def_1283 .def_1285))
(define-fun .def_1252 () Bool (= call_moesi.ite34.next call_moesi.ite33.next))
(define-fun .def_1253 () Bool (or param_etat_mo1.next .def_1252))
(define-fun .def_1248 () Bool (= call_moesi.ite29.next call_moesi.ite34.next))
(define-fun .def_1225 () Bool (not param_etat_mo1.next))
(define-fun .def_1249 () Bool (or .def_1225 .def_1248))
(define-fun .def_1245 () Bool (= call_moesi.ite28.next call_moesi.ite27.next))
(define-fun .def_1246 () Bool (or param_etat_mo1.next .def_1245))
(define-fun .def_1241 () Bool (= call_moesi.ite23.next call_moesi.ite28.next))
(define-fun .def_1242 () Bool (or .def_1225 .def_1241))
(define-fun .def_1238 () Bool (= call_moesi.ite22.next call_moesi.ite21.next))
(define-fun .def_1239 () Bool (or param_etat_mo1.next .def_1238))
(define-fun .def_1234 () Bool (= call_moesi.ite17.next call_moesi.ite22.next))
(define-fun .def_1235 () Bool (or .def_1225 .def_1234))
(define-fun .def_1231 () Bool (= call_moesi.ite16.next call_moesi.ite15.next))
(define-fun .def_1232 () Bool (or param_etat_mo1.next .def_1231))
(define-fun .def_1228 () Bool (= call_moesi.ite9.next call_moesi.ite16.next))
(define-fun .def_1229 () Bool (or .def_1225 .def_1228))
(define-fun .def_1224 () Bool (= call_moesi.ite.next call_moesi.ite8.next))
(define-fun .def_1226 () Bool (or .def_1224 .def_1225))
(define-fun .def_1221 () Bool (= call_moesi.ite8.next call_moesi.ite7.next))
(define-fun .def_1223 () Bool (or .def_1221 param_etat_mo1.next))
(define-fun .def_1227 () Bool (and .def_1223 .def_1226))
(define-fun .def_1230 () Bool (and .def_1227 .def_1229))
(define-fun .def_1233 () Bool (and .def_1230 .def_1232))
(define-fun .def_1236 () Bool (and .def_1233 .def_1235))
(define-fun .def_1240 () Bool (and .def_1236 .def_1239))
(define-fun .def_1243 () Bool (and .def_1240 .def_1242))
(define-fun .def_1247 () Bool (and .def_1243 .def_1246))
(define-fun .def_1250 () Bool (and .def_1247 .def_1249))
(define-fun .def_1254 () Bool (and .def_1250 .def_1253))
(define-fun .def_1218 () Bool (= call_moesi.ite15.next call_moesi.ite14.next))
(define-fun .def_1219 () Bool (or param_etat_mo2.next .def_1218))
(define-fun .def_1214 () Bool (= call_moesi.ite10.next call_moesi.ite15.next))
(define-fun .def_1210 () Bool (not param_etat_mo2.next))
(define-fun .def_1215 () Bool (or .def_1210 .def_1214))
(define-fun .def_1209 () Bool (= call_moesi.ite2.next call_moesi.ite7.next))
(define-fun .def_1211 () Bool (or .def_1209 .def_1210))
(define-fun .def_1206 () Bool (= call_moesi.ite7.next call_moesi.ite6.next))
(define-fun .def_1208 () Bool (or .def_1206 param_etat_mo2.next))
(define-fun .def_1212 () Bool (and .def_1208 .def_1211))
(define-fun .def_1216 () Bool (and .def_1212 .def_1215))
(define-fun .def_1220 () Bool (and .def_1216 .def_1219))
(define-fun .def_1255 () Bool (and .def_1220 .def_1254))
(define-fun .def_1287 () Bool (and .def_1255 .def_1286))
(define-fun .def_1293 () Bool (and .def_1287 .def_1292))
(define-fun .def_1296 () Bool (and .def_1293 .def_1295))
(define-fun .def_1298 () Bool (and .def_1296 .def_1297))
(define-fun .def_1301 () Bool (and .def_1298 .def_1300))
(define-fun .def_1304 () Bool (and .def_1301 .def_1303))
(define-fun .def_1307 () Bool (and .def_1304 .def_1306))
(define-fun .def_1311 () Bool (and .def_1307 .def_1310))
(define-fun .def_1314 () Bool (and .def_1311 .def_1313))
(define-fun .def_1316 () Bool (and .def_1314 .def_1315))
(define-fun .def_1318 () Bool (and .def_1316 .def_1317))
(define-fun .def_1320 () Bool (and .def_1318 .def_1319))
(define-fun .def_1322 () Bool (and .def_1320 .def_1321))
(define-fun .def_1324 () Bool (and .def_1322 .def_1323))
(define-fun .def_1326 () Bool (and .def_1324 .def_1325))
(define-fun .def_1340 () Bool (and .def_1326 .def_1339))
(define-fun .def_1342 () Bool (and .def_1340 .def_1341))
(define-fun .def_926 () Bool (= call_Sofar.flby call_Sofar.Sofar))
(define-fun .def_921 () Bool (and param_etat_mo4 param_etat_mo3))
(define-fun .def_919 () Bool (and param_etat_mo4 param_etat_mo2))
(define-fun .def_917 () Bool (and param_etat_mo2 param_etat_mo3))
(define-fun .def_915 () Bool (and param_etat_mo4 param_etat_mo1))
(define-fun .def_912 () Bool (and param_etat_mo2 param_etat_mo1))
(define-fun .def_913 () Bool (and param_etat_mo1 .def_912))
(define-fun .def_914 () Bool (and param_etat_mo3 .def_913))
(define-fun .def_916 () Bool (or .def_914 .def_915))
(define-fun .def_918 () Bool (or .def_916 .def_917))
(define-fun .def_920 () Bool (or .def_918 .def_919))
(define-fun .def_922 () Bool (or .def_920 .def_921))
(define-fun .def_923 () Bool (not .def_922))
(define-fun .def_924 () Bool (= call_excludes4.excludes .def_923))
(define-fun .def_910 () Bool (= call_moesi.flby call_moesi.erreur_mo))
(define-fun .def_908 () Bool (= call_moesi.flby6 call_moesi.owned_mo))
(define-fun .def_906 () Bool (= call_moesi.flby5 call_moesi.invalid_mo))
(define-fun .def_904 () Bool (= call_moesi.flby4 call_moesi.shared_mo))
(define-fun .def_902 () Bool (= call_moesi.flby3 call_moesi.exclusive_mo))
(define-fun .def_900 () Bool (= call_moesi.flby2 call_moesi.modified_mo))
(define-fun .def_898 () Bool (= env call_Sofar.Sofar))
(define-fun .def_895 () Bool (= erreur_mo call_moesi.erreur_mo))
(define-fun .def_891 () Bool (= owned_mo call_moesi.owned_mo))
(define-fun .def_887 () Bool (= invalid_mo call_moesi.invalid_mo))
(define-fun .def_883 () Bool (= shared_mo call_moesi.shared_mo))
(define-fun .def_879 () Bool (= exclusive_mo call_moesi.exclusive_mo))
(define-fun .def_875 () Bool (= modified_mo call_moesi.modified_mo))
(define-fun .def_869 () Bool (not env))
(define-fun .def_870 () Bool (or flby .def_869))
(define-fun .def_871 () Bool (= _OK_ .def_870))
(define-fun .def_863 () Bool (= call_moesi.ite32 call_moesi.ite33))
(define-fun .def_864 () Bool (or param_etat_mo3 .def_863))
(define-fun .def_860 () Bool (= call_moesi.ite30 call_moesi.ite33))
(define-fun .def_838 () Bool (not param_etat_mo3))
(define-fun .def_861 () Bool (or .def_838 .def_860))
(define-fun .def_857 () Bool (= call_moesi.ite26 call_moesi.ite27))
(define-fun .def_858 () Bool (or param_etat_mo3 .def_857))
(define-fun .def_854 () Bool (= call_moesi.ite27 call_moesi.ite24))
(define-fun .def_855 () Bool (or .def_838 .def_854))
(define-fun .def_850 () Bool (= call_moesi.ite20 call_moesi.ite21))
(define-fun .def_851 () Bool (or param_etat_mo3 .def_850))
(define-fun .def_847 () Bool (= call_moesi.ite18 call_moesi.ite21))
(define-fun .def_848 () Bool (or .def_838 .def_847))
(define-fun .def_844 () Bool (= call_moesi.ite13 call_moesi.ite14))
(define-fun .def_845 () Bool (or param_etat_mo3 .def_844))
(define-fun .def_841 () Bool (= call_moesi.ite11 call_moesi.ite14))
(define-fun .def_842 () Bool (or .def_838 .def_841))
(define-fun .def_837 () Bool (= call_moesi.ite3 call_moesi.ite6))
(define-fun .def_839 () Bool (or .def_837 .def_838))
(define-fun .def_834 () Bool (= call_moesi.ite5 call_moesi.ite6))
(define-fun .def_836 () Bool (or .def_834 param_etat_mo3))
(define-fun .def_840 () Bool (and .def_836 .def_839))
(define-fun .def_843 () Bool (and .def_840 .def_842))
(define-fun .def_846 () Bool (and .def_843 .def_845))
(define-fun .def_849 () Bool (and .def_846 .def_848))
(define-fun .def_852 () Bool (and .def_849 .def_851))
(define-fun .def_856 () Bool (and .def_852 .def_855))
(define-fun .def_859 () Bool (and .def_856 .def_858))
(define-fun .def_862 () Bool (and .def_859 .def_861))
(define-fun .def_865 () Bool (and .def_862 .def_864))
(define-fun .def_830 () Bool (= call_moesi.ite34 call_moesi.ite33))
(define-fun .def_831 () Bool (or param_etat_mo1 .def_830))
(define-fun .def_826 () Bool (= call_moesi.ite29 call_moesi.ite34))
(define-fun .def_796 () Bool (not param_etat_mo1))
(define-fun .def_827 () Bool (or .def_796 .def_826))
(define-fun .def_821 () Bool (= call_moesi.ite28 call_moesi.ite27))
(define-fun .def_822 () Bool (or param_etat_mo1 .def_821))
(define-fun .def_817 () Bool (= call_moesi.ite23 call_moesi.ite28))
(define-fun .def_818 () Bool (or .def_796 .def_817))
(define-fun .def_812 () Bool (= call_moesi.ite22 call_moesi.ite21))
(define-fun .def_813 () Bool (or param_etat_mo1 .def_812))
(define-fun .def_808 () Bool (= call_moesi.ite17 call_moesi.ite22))
(define-fun .def_809 () Bool (or .def_796 .def_808))
(define-fun .def_803 () Bool (= call_moesi.ite15 call_moesi.ite16))
(define-fun .def_804 () Bool (or param_etat_mo1 .def_803))
(define-fun .def_800 () Bool (= call_moesi.ite9 call_moesi.ite16))
(define-fun .def_801 () Bool (or .def_796 .def_800))
(define-fun .def_795 () Bool (= call_moesi.ite call_moesi.ite8))
(define-fun .def_797 () Bool (or .def_795 .def_796))
(define-fun .def_792 () Bool (= call_moesi.ite7 call_moesi.ite8))
(define-fun .def_794 () Bool (or .def_792 param_etat_mo1))
(define-fun .def_798 () Bool (and .def_794 .def_797))
(define-fun .def_802 () Bool (and .def_798 .def_801))
(define-fun .def_805 () Bool (and .def_802 .def_804))
(define-fun .def_810 () Bool (and .def_805 .def_809))
(define-fun .def_814 () Bool (and .def_810 .def_813))
(define-fun .def_819 () Bool (and .def_814 .def_818))
(define-fun .def_823 () Bool (and .def_819 .def_822))
(define-fun .def_828 () Bool (and .def_823 .def_827))
(define-fun .def_832 () Bool (and .def_828 .def_831))
(define-fun .def_788 () Bool (= call_moesi.ite15 call_moesi.ite14))
(define-fun .def_789 () Bool (or param_etat_mo2 .def_788))
(define-fun .def_784 () Bool (= call_moesi.ite10 call_moesi.ite15))
(define-fun .def_779 () Bool (not param_etat_mo2))
(define-fun .def_785 () Bool (or .def_779 .def_784))
(define-fun .def_778 () Bool (= call_moesi.ite7 call_moesi.ite2))
(define-fun .def_780 () Bool (or .def_778 .def_779))
(define-fun .def_774 () Bool (= call_moesi.ite7 call_moesi.ite6))
(define-fun .def_776 () Bool (or .def_774 param_etat_mo2))
(define-fun .def_781 () Bool (and .def_776 .def_780))
(define-fun .def_786 () Bool (and .def_781 .def_785))
(define-fun .def_790 () Bool (and .def_786 .def_789))
(define-fun .def_833 () Bool (and .def_790 .def_832))
(define-fun .def_866 () Bool (and .def_833 .def_865))
(define-fun .def_872 () Bool (and .def_866 .def_871))
(define-fun .def_876 () Bool (and .def_872 .def_875))
(define-fun .def_880 () Bool (and .def_876 .def_879))
(define-fun .def_884 () Bool (and .def_880 .def_883))
(define-fun .def_888 () Bool (and .def_884 .def_887))
(define-fun .def_892 () Bool (and .def_888 .def_891))
(define-fun .def_896 () Bool (and .def_892 .def_895))
(define-fun .def_899 () Bool (and .def_896 .def_898))
(define-fun .def_901 () Bool (and .def_899 .def_900))
(define-fun .def_903 () Bool (and .def_901 .def_902))
(define-fun .def_905 () Bool (and .def_903 .def_904))
(define-fun .def_907 () Bool (and .def_905 .def_906))
(define-fun .def_909 () Bool (and .def_907 .def_908))
(define-fun .def_911 () Bool (and .def_909 .def_910))
(define-fun .def_925 () Bool (and .def_911 .def_924))
(define-fun .def_927 () Bool (and .def_925 .def_926))
(define-fun .def_1343 () Bool (and .def_927 .def_1342))
(define-fun .def_1200 () Bool (and call_Sofar.Sofar call_excludes4.excludes.next))
(define-fun .def_1202 () Bool (= .def_1200 call_Sofar.flby.next))
(define-fun .def_1197 () Bool (= call_moesi.ite34.next call_moesi.flby6.next))
(define-fun .def_1193 () Bool (= call_moesi.ite28.next call_moesi.flby5.next))
(define-fun .def_1189 () Bool (= call_moesi.ite22.next call_moesi.flby4.next))
(define-fun .def_1185 () Bool (= call_moesi.ite16.next call_moesi.flby3.next))
(define-fun .def_1181 () Bool (= call_moesi.ite8.next call_moesi.flby2.next))
(define-fun .def_1175 () Bool (<= 2 call_moesi.exclusive_mo.next))
(define-fun .def_1177 () Bool (= .def_1175 call_moesi.flby.next))
(define-fun .def_1137 () Bool (<= 1 call_moesi.invalid_mo))
(define-fun .def_1171 () Bool (= call_moesi.garde_mo4.next .def_1137))
(define-fun .def_1168 () Bool (= call_moesi.ite31.next 0))
(define-fun .def_1054 () Bool (not call_moesi.garde_mo4.next))
(define-fun .def_1169 () Bool (or .def_1054 .def_1168))
(define-fun .def_1165 () Bool (= call_moesi.ite19.next 0))
(define-fun .def_1166 () Bool (or .def_1054 .def_1165))
(define-fun .def_1162 () Bool (= call_moesi.ite4.next 0))
(define-fun .def_1163 () Bool (or .def_1054 .def_1162))
(define-fun .def_1160 () Bool (= call_moesi.ite12.next 1))
(define-fun .def_1161 () Bool (or .def_1054 .def_1160))
(define-fun .def_1164 () Bool (and .def_1161 .def_1163))
(define-fun .def_1167 () Bool (and .def_1164 .def_1166))
(define-fun .def_1170 () Bool (and .def_1167 .def_1169))
(define-fun .def_1172 () Bool (and .def_1170 .def_1171))
(define-fun .def_1155 () Int (+ call_moesi.shared_mo call_moesi.owned_mo))
(define-fun .def_1156 () Bool (<= 2 .def_1155))
(define-fun .def_1157 () Bool (= call_moesi.garde_mo3.next .def_1156))
(define-fun .def_1152 () Bool (= call_moesi.ite30.next 0))
(define-fun .def_1039 () Bool (not call_moesi.garde_mo3.next))
(define-fun .def_1153 () Bool (or .def_1039 .def_1152))
(define-fun .def_1149 () Bool (= call_moesi.ite18.next 0))
(define-fun .def_1150 () Bool (or .def_1039 .def_1149))
(define-fun .def_1146 () Bool (= call_moesi.ite3.next 0))
(define-fun .def_1147 () Bool (or .def_1039 .def_1146))
(define-fun .def_1144 () Bool (= call_moesi.ite11.next 1))
(define-fun .def_1145 () Bool (or .def_1039 .def_1144))
(define-fun .def_1148 () Bool (and .def_1145 .def_1147))
(define-fun .def_1151 () Bool (and .def_1148 .def_1150))
(define-fun .def_1154 () Bool (and .def_1151 .def_1153))
(define-fun .def_1158 () Bool (and .def_1154 .def_1157))
(define-fun .def_1141 () Bool (<= 1 call_moesi.exclusive_mo))
(define-fun .def_1142 () Bool (= call_moesi.garde_mo2.next .def_1141))
(define-fun .def_1138 () Bool (= call_moesi.garde_mo1.next .def_1137))
(define-fun .def_1134 () Bool (= call_moesi.ite.next 0))
(define-fun .def_1064 () Bool (not call_moesi.garde_mo1.next))
(define-fun .def_1135 () Bool (or .def_1064 .def_1134))
(define-fun .def_1132 () Bool (= call_moesi.ite9.next 0))
(define-fun .def_1133 () Bool (or .def_1064 .def_1132))
(define-fun .def_1136 () Bool (and .def_1133 .def_1135))
(define-fun .def_1139 () Bool (and .def_1136 .def_1138))
(define-fun .def_1128 () Bool (= call_moesi.owned_mo call_moesi.ite31.next))
(define-fun .def_1129 () Bool (or call_moesi.garde_mo4.next .def_1128))
(define-fun .def_1125 () Bool (= call_moesi.owned_mo call_moesi.ite29.next))
(define-fun .def_1126 () Bool (or call_moesi.garde_mo1.next .def_1125))
(define-fun .def_1123 () Bool (= call_moesi.owned_mo call_moesi.ite30.next))
(define-fun .def_1124 () Bool (or call_moesi.garde_mo3.next .def_1123))
(define-fun .def_1127 () Bool (and .def_1124 .def_1126))
(define-fun .def_1130 () Bool (and .def_1127 .def_1129))
(define-fun .def_1118 () Bool (= call_moesi.invalid_mo call_moesi.ite25.next))
(define-fun .def_1119 () Bool (or call_moesi.garde_mo4.next .def_1118))
(define-fun .def_1115 () Bool (= call_moesi.invalid_mo call_moesi.ite24.next))
(define-fun .def_1116 () Bool (or call_moesi.garde_mo3.next .def_1115))
(define-fun .def_1110 () Int (* (- 1) call_moesi.ite23.next))
(define-fun .def_1111 () Int (+ call_moesi.invalid_mo .def_1110))
(define-fun .def_1112 () Bool (= .def_1111 1))
(define-fun .def_1113 () Bool (or .def_1064 .def_1112))
(define-fun .def_1108 () Bool (= call_moesi.invalid_mo call_moesi.ite23.next))
(define-fun .def_1109 () Bool (or call_moesi.garde_mo1.next .def_1108))
(define-fun .def_1114 () Bool (and .def_1109 .def_1113))
(define-fun .def_1117 () Bool (and .def_1114 .def_1116))
(define-fun .def_1120 () Bool (and .def_1117 .def_1119))
(define-fun .def_1103 () Bool (= call_moesi.shared_mo call_moesi.ite19.next))
(define-fun .def_1104 () Bool (or call_moesi.garde_mo4.next .def_1103))
(define-fun .def_1100 () Bool (= call_moesi.shared_mo call_moesi.ite17.next))
(define-fun .def_1101 () Bool (or call_moesi.garde_mo1.next .def_1100))
(define-fun .def_1098 () Bool (= call_moesi.shared_mo call_moesi.ite18.next))
(define-fun .def_1099 () Bool (or call_moesi.garde_mo3.next .def_1098))
(define-fun .def_1102 () Bool (and .def_1099 .def_1101))
(define-fun .def_1105 () Bool (and .def_1102 .def_1104))
(define-fun .def_1088 () Int (* (- 1) call_moesi.ite17.next))
(define-fun .def_1091 () Int (+ call_moesi.shared_mo .def_1088))
(define-fun .def_1092 () Int (+ call_moesi.exclusive_mo .def_1091))
(define-fun .def_1093 () Bool (= .def_1092 (- 1)))
(define-fun .def_1094 () Bool (or .def_1064 .def_1093))
(define-fun .def_1084 () Bool (= call_moesi.exclusive_mo call_moesi.ite12.next))
(define-fun .def_1085 () Bool (or call_moesi.garde_mo4.next .def_1084))
(define-fun .def_1081 () Bool (= call_moesi.exclusive_mo call_moesi.ite11.next))
(define-fun .def_1082 () Bool (or call_moesi.garde_mo3.next .def_1081))
(define-fun .def_1077 () Bool (= call_moesi.exclusive_mo call_moesi.ite10.next))
(define-fun .def_1078 () Bool (or call_moesi.garde_mo2.next .def_1077))
(define-fun .def_1074 () Bool (= call_moesi.exclusive_mo call_moesi.ite9.next))
(define-fun .def_1075 () Bool (or call_moesi.garde_mo1.next .def_1074))
(define-fun .def_1069 () Int (* (- 1) call_moesi.ite10.next))
(define-fun .def_1070 () Int (+ call_moesi.exclusive_mo .def_1069))
(define-fun .def_1071 () Bool (= .def_1070 1))
(define-fun .def_1007 () Bool (not call_moesi.garde_mo2.next))
(define-fun .def_1072 () Bool (or .def_1007 .def_1071))
(define-fun .def_1076 () Bool (and .def_1072 .def_1075))
(define-fun .def_1079 () Bool (and .def_1076 .def_1078))
(define-fun .def_1083 () Bool (and .def_1079 .def_1082))
(define-fun .def_1086 () Bool (and .def_1083 .def_1085))
(define-fun .def_1095 () Bool (and .def_1086 .def_1094))
(define-fun .def_1058 () Int (* (- 1) call_moesi.ite29.next))
(define-fun .def_1061 () Int (+ call_moesi.owned_mo .def_1058))
(define-fun .def_1062 () Int (+ call_moesi.modified_mo .def_1061))
(define-fun .def_1063 () Bool (= .def_1062 0))
(define-fun .def_1065 () Bool (or .def_1063 .def_1064))
(define-fun .def_1042 () Int (* (- 1) call_moesi.ite25.next))
(define-fun .def_1048 () Int (+ call_moesi.owned_mo .def_1042))
(define-fun .def_1049 () Int (+ call_moesi.invalid_mo .def_1048))
(define-fun .def_1050 () Int (+ call_moesi.shared_mo .def_1049))
(define-fun .def_1051 () Int (+ call_moesi.exclusive_mo .def_1050))
(define-fun .def_1052 () Int (+ call_moesi.modified_mo .def_1051))
(define-fun .def_1053 () Bool (= .def_1052 1))
(define-fun .def_1055 () Bool (or .def_1053 .def_1054))
(define-fun .def_1027 () Int (* (- 1) call_moesi.ite24.next))
(define-fun .def_1033 () Int (+ call_moesi.owned_mo .def_1027))
(define-fun .def_1034 () Int (+ call_moesi.invalid_mo .def_1033))
(define-fun .def_1035 () Int (+ call_moesi.shared_mo .def_1034))
(define-fun .def_1036 () Int (+ call_moesi.exclusive_mo .def_1035))
(define-fun .def_1037 () Int (+ call_moesi.modified_mo .def_1036))
(define-fun .def_1038 () Bool (= .def_1037 1))
(define-fun .def_1040 () Bool (or .def_1038 .def_1039))
(define-fun .def_1022 () Bool (= call_moesi.modified_mo call_moesi.ite4.next))
(define-fun .def_1024 () Bool (or .def_1022 call_moesi.garde_mo4.next))
(define-fun .def_1018 () Bool (= call_moesi.modified_mo call_moesi.ite3.next))
(define-fun .def_1020 () Bool (or .def_1018 call_moesi.garde_mo3.next))
(define-fun .def_1014 () Bool (= call_moesi.modified_mo call_moesi.ite2.next))
(define-fun .def_1015 () Bool (or call_moesi.garde_mo2.next .def_1014))
(define-fun .def_1010 () Bool (= call_moesi.modified_mo call_moesi.ite.next))
(define-fun .def_1012 () Bool (or .def_1010 call_moesi.garde_mo1.next))
(define-fun .def_1003 () Int (* (- 1) call_moesi.ite2.next))
(define-fun .def_1004 () Int (+ call_moesi.modified_mo .def_1003))
(define-fun .def_1005 () Bool (= .def_1004 (- 1)))
(define-fun .def_1008 () Bool (or .def_1005 .def_1007))
(define-fun .def_1013 () Bool (and .def_1008 .def_1012))
(define-fun .def_1016 () Bool (and .def_1013 .def_1015))
(define-fun .def_1021 () Bool (and .def_1016 .def_1020))
(define-fun .def_1025 () Bool (and .def_1021 .def_1024))
(define-fun .def_1041 () Bool (and .def_1025 .def_1040))
(define-fun .def_1056 () Bool (and .def_1041 .def_1055))
(define-fun .def_1066 () Bool (and .def_1056 .def_1065))
(define-fun .def_998 () Bool (= call_moesi.owned_mo call_moesi.ite32.next))
(define-fun .def_999 () Bool (or param_etat_mo4.next .def_998))
(define-fun .def_995 () Bool (= call_moesi.ite31.next call_moesi.ite32.next))
(define-fun .def_966 () Bool (not param_etat_mo4.next))
(define-fun .def_996 () Bool (or .def_966 .def_995))
(define-fun .def_990 () Bool (= call_moesi.invalid_mo call_moesi.ite26.next))
(define-fun .def_991 () Bool (or param_etat_mo4.next .def_990))
(define-fun .def_987 () Bool (= call_moesi.ite25.next call_moesi.ite26.next))
(define-fun .def_988 () Bool (or .def_966 .def_987))
(define-fun .def_982 () Bool (= call_moesi.shared_mo call_moesi.ite20.next))
(define-fun .def_983 () Bool (or param_etat_mo4.next .def_982))
(define-fun .def_979 () Bool (= call_moesi.ite19.next call_moesi.ite20.next))
(define-fun .def_980 () Bool (or .def_966 .def_979))
(define-fun .def_974 () Bool (= call_moesi.exclusive_mo call_moesi.ite13.next))
(define-fun .def_975 () Bool (or param_etat_mo4.next .def_974))
(define-fun .def_971 () Bool (= call_moesi.ite12.next call_moesi.ite13.next))
(define-fun .def_972 () Bool (or .def_966 .def_971))
(define-fun .def_965 () Bool (= call_moesi.ite5.next call_moesi.ite4.next))
(define-fun .def_967 () Bool (or .def_965 .def_966))
(define-fun .def_961 () Bool (= call_moesi.modified_mo call_moesi.ite5.next))
(define-fun .def_963 () Bool (or .def_961 param_etat_mo4.next))
(define-fun .def_968 () Bool (and .def_963 .def_967))
(define-fun .def_973 () Bool (and .def_968 .def_972))
(define-fun .def_976 () Bool (and .def_973 .def_975))
(define-fun .def_981 () Bool (and .def_976 .def_980))
(define-fun .def_984 () Bool (and .def_981 .def_983))
(define-fun .def_989 () Bool (and .def_984 .def_988))
(define-fun .def_992 () Bool (and .def_989 .def_991))
(define-fun .def_997 () Bool (and .def_992 .def_996))
(define-fun .def_1000 () Bool (and .def_997 .def_999))
(define-fun .def_941 () Int (* (- 1) owned_mo.next))
(define-fun .def_938 () Int (* (- 1) invalid_mo.next))
(define-fun .def_948 () Int (+ .def_938 .def_941))
(define-fun .def_935 () Int (* (- 1) shared_mo.next))
(define-fun .def_949 () Int (+ .def_935 .def_948))
(define-fun .def_932 () Int (* (- 1) exclusive_mo.next))
(define-fun .def_950 () Int (+ .def_932 .def_949))
(define-fun .def_930 () Int (* (- 1) modified_mo.next))
(define-fun .def_951 () Int (+ .def_930 .def_950))
(define-fun .def_952 () Int (+ owned_mo .def_951))
(define-fun .def_953 () Int (+ invalid_mo .def_952))
(define-fun .def_954 () Int (+ shared_mo .def_953))
(define-fun .def_955 () Int (+ exclusive_mo .def_954))
(define-fun .def_956 () Int (+ modified_mo .def_955))
(define-fun .def_957 () Bool (= .def_956 0))
(define-fun .def_959 () Bool (= .def_957 flby.next))
(define-fun .def_1001 () Bool (and .def_959 .def_1000))
(define-fun .def_1067 () Bool (and .def_1001 .def_1066))
(define-fun .def_1096 () Bool (and .def_1067 .def_1095))
(define-fun .def_1106 () Bool (and .def_1096 .def_1105))
(define-fun .def_1121 () Bool (and .def_1106 .def_1120))
(define-fun .def_1131 () Bool (and .def_1121 .def_1130))
(define-fun .def_1140 () Bool (and .def_1131 .def_1139))
(define-fun .def_1143 () Bool (and .def_1140 .def_1142))
(define-fun .def_1159 () Bool (and .def_1143 .def_1158))
(define-fun .def_1173 () Bool (and .def_1159 .def_1172))
(define-fun .def_1178 () Bool (and .def_1173 .def_1177))
(define-fun .def_1182 () Bool (and .def_1178 .def_1181))
(define-fun .def_1186 () Bool (and .def_1182 .def_1185))
(define-fun .def_1190 () Bool (and .def_1186 .def_1189))
(define-fun .def_1194 () Bool (and .def_1190 .def_1193))
(define-fun .def_1198 () Bool (and .def_1194 .def_1197))
(define-fun .def_1203 () Bool (and .def_1198 .def_1202))
(define-fun .def_1344 () Bool (and .def_1203 .def_1343))
(assert .def_1344)
